(set-info :original "../out/aws_byte_cursor_advance_nospec_harness.c/aws_byte_cursor_advance_nospec_harnessdf57d.bc.txt")
(set-info :authors "SeaHorn v.10.0.0-rc0")
(declare-rel verifier.error (Bool Bool Bool ))
(declare-rel main@entry ())
(declare-rel main@verifier.error.split ())
(declare-var main@%_26_0 Int )
(declare-var main@%_27_0 Int )
(declare-var main@%_28_0 Bool )
(declare-var main@%_24_0 Bool )
(declare-var main@%_44_0 Int )
(declare-var main@%_45_0 Int )
(declare-var main@%_46_0 Bool )
(declare-var main@%_42_0 Bool )
(declare-var main@%_39_0 Int )
(declare-var main@%_40_0 Bool )
(declare-var main@%_36_0 Bool )
(declare-var main@%_32_0 Int )
(declare-var main@%_33_0 Int )
(declare-var main@%_34_0 Bool )
(declare-var main@%_30_0 Bool )
(declare-var main@%_18_0 Bool )
(declare-var main@%_19_0 Bool )
(declare-var main@%or.cond.i_0 Bool )
(declare-var main@%_20_0 Bool )
(declare-var main@%or.cond14.i_0 Bool )
(declare-var main@%_21_0 Int )
(declare-var main@%sm2_0 (Array Int Int) )
(declare-var main@%_1_0 Int )
(declare-var main@%_3_0 Bool )
(declare-var main@%_10_0 Int )
(declare-var main@%_11_0 Bool )
(declare-var main@%_12_0 Int )
(declare-var main@%_13_0 Int )
(declare-var main@%_14_0 Int )
(declare-var main@%_15_0 Int )
(declare-var main@%_16_0 Bool )
(declare-var main@entry_0 Bool )
(declare-var main@%sm3_0 (Array Int Int) )
(declare-var main@%_0_0 Int )
(declare-var main@%_2_0 Int )
(declare-var main@%_4_0 Int )
(declare-var main@%_5_0 Int )
(declare-var main@%_6_0 Int )
(declare-var main@%_7_0 Int )
(declare-var main@%_8_0 Int )
(declare-var main@%.pmcpy.elt.i_0 Int )
(declare-var main@%.pmcpy.unpack.i_0 Int )
(declare-var main@%.pmcpy.elt2.i_0 Int )
(declare-var main@%.pmcpy.unpack3.i_0 Int )
(declare-var main@%sm_0 (Array Int Int) )
(declare-var main@_17_0 Bool )
(declare-var main@%_22_0 Int )
(declare-var main@_29_0 Bool )
(declare-var main@_31_0 Bool )
(declare-var main@_35_0 Bool )
(declare-var main@%_37_0 Int )
(declare-var main@_38_0 Bool )
(declare-var main@_41_0 Bool )
(declare-var main@_43_0 Bool )
(declare-var |tuple(main@_41_0, main@_43_0)| Bool )
(declare-var |tuple(main@_38_0, main@_43_0)| Bool )
(declare-var main@_23_0 Bool )
(declare-var main@_25_0 Bool )
(declare-var main@verifier.error_0 Bool )
(declare-var |tuple(main@_41_0, main@verifier.error_0)| Bool )
(declare-var |tuple(main@_38_0, main@verifier.error_0)| Bool )
(declare-var |tuple(main@_31_0, main@verifier.error_0)| Bool )
(declare-var |tuple(main@_29_0, main@verifier.error_0)| Bool )
(declare-var |tuple(main@_23_0, main@verifier.error_0)| Bool )
(declare-var |tuple(main@entry_0, main@verifier.error_0)| Bool )
(declare-var main@verifier.error.split_0 Bool )
(rule (verifier.error false false false))
(rule (verifier.error false true true))
(rule (verifier.error true false true))
(rule (verifier.error true true true))
(rule main@entry)
(rule (let ((a!1 (= main@%.pmcpy.elt.i_0 (+ (+ main@%_0_0 (* 0 8)) 0)))
      (a!2 (= main@%.pmcpy.elt2.i_0 (+ (+ main@%_0_0 (* 0 8)) 4)))
      (a!3 (= main@%_20_0
              (ite (>= main@%.pmcpy.unpack.i_0 0)
                   (ite (>= main@%_7_0 0)
                        (< main@%.pmcpy.unpack.i_0 main@%_7_0)
                        true)
                   (ite (< main@%_7_0 0)
                        (< main@%.pmcpy.unpack.i_0 main@%_7_0)
                        false))))
      (a!4 (= main@%_21_0 (+ (+ main@%_2_0 (* 0 8)) 4)))
      (a!5 (= main@%_32_0 (+ (+ main@%_2_0 (* 0 8)) 0)))
      (a!6 (=> main@_38_0
               (= main@%_39_0 (+ main@%.pmcpy.unpack3.i_0 (* main@%_5_0 1)))))
      (a!7 (= main@%_26_0 (+ (+ main@%_2_0 (* 0 8)) 0))))
(let ((a!8 (and main@entry
                true
                (> main@%_0_0 0)
                (> main@%_1_0 0)
                (> main@%_2_0 0)
                (not main@%_3_0)
                (= main@%_10_0 main@%_0_0)
                main@%_11_0
                a!1
                (or (<= main@%_0_0 0) (> main@%.pmcpy.elt.i_0 0))
                (= main@%.pmcpy.unpack.i_0
                   (select main@%sm3_0 main@%.pmcpy.elt.i_0))
                a!2
                (or (<= main@%_0_0 0) (> main@%.pmcpy.elt2.i_0 0))
                (> main@%_0_0 0)
                (= main@%.pmcpy.unpack3.i_0
                   (select main@%sm3_0 main@%.pmcpy.elt2.i_0))
                (= main@%_12_0 main@%_1_0)
                (= main@%_13_0 main@%_2_0)
                (= main@%_15_0 main@%_2_0)
                (= main@%sm_0 (store main@%sm2_0 main@%_15_0 main@%_14_0))
                (=> main@_17_0 (and main@_17_0 main@entry_0))
                (=> (and main@_17_0 main@entry_0) main@%_16_0)
                (=> main@_17_0 (= main@%_18_0 (< main@%.pmcpy.unpack.i_0 0)))
                (=> main@_17_0 (= main@%_19_0 (< main@%_8_0 0)))
                (=> main@_17_0
                    (= main@%or.cond.i_0 (or main@%_19_0 main@%_18_0)))
                (=> main@_17_0 a!3)
                (=> main@_17_0
                    (= main@%or.cond14.i_0 (or main@%_20_0 main@%or.cond.i_0)))
                (=> main@_17_0 a!4)
                (=> main@_17_0 (or (<= main@%_2_0 0) (> main@%_21_0 0)))
                (=> main@_17_0 (> main@%_2_0 0))
                (=> main@_17_0 (= main@%_22_0 (select main@%sm_0 main@%_21_0)))
                (=> main@_29_0 (and main@_29_0 main@_17_0))
                (=> (and main@_29_0 main@_17_0) (not main@%or.cond14.i_0))
                (=> main@_29_0
                    (= main@%_30_0 (= main@%_22_0 main@%.pmcpy.unpack3.i_0)))
                (=> main@_31_0 (and main@_31_0 main@_29_0))
                (=> (and main@_31_0 main@_29_0) main@%_30_0)
                (=> main@_31_0 a!5)
                (=> main@_31_0 (or (<= main@%_2_0 0) (> main@%_32_0 0)))
                (=> main@_31_0 (= main@%_33_0 (select main@%sm_0 main@%_32_0)))
                (=> main@_31_0 (= main@%_34_0 (= main@%_33_0 main@%_6_0)))
                (=> main@_35_0 (and main@_35_0 main@_31_0))
                (=> (and main@_35_0 main@_31_0) main@%_34_0)
                (=> main@_35_0 (= main@%_36_0 (= main@%.pmcpy.unpack3.i_0 0)))
                (=> main@_35_0 (> main@%_0_0 0))
                (=> main@_35_0
                    (= main@%_37_0 (select main@%sm3_0 main@%.pmcpy.elt2.i_0)))
                (=> main@_38_0 (and main@_38_0 main@_35_0))
                (=> (and main@_38_0 main@_35_0) (not main@%_36_0))
                a!6
                (=> main@_38_0
                    (or (<= main@%.pmcpy.unpack3.i_0 0) (> main@%_39_0 0)))
                (=> main@_38_0 (= main@%_40_0 (= main@%_37_0 main@%_39_0)))
                (=> main@_41_0 (and main@_41_0 main@_35_0))
                (=> (and main@_41_0 main@_35_0) main@%_36_0)
                (=> main@_41_0 (= main@%_42_0 (= main@%_37_0 0)))
                (=> |tuple(main@_41_0, main@_43_0)| main@_41_0)
                (=> |tuple(main@_38_0, main@_43_0)| main@_38_0)
                (=> main@_43_0
                    (or |tuple(main@_41_0, main@_43_0)|
                        |tuple(main@_38_0, main@_43_0)|))
                (=> |tuple(main@_41_0, main@_43_0)| main@%_42_0)
                (=> |tuple(main@_38_0, main@_43_0)| main@%_40_0)
                (=> main@_43_0
                    (= main@%_44_0 (select main@%sm3_0 main@%.pmcpy.elt.i_0)))
                (=> main@_43_0
                    (= main@%_45_0 (- main@%.pmcpy.unpack.i_0 main@%_4_0)))
                (=> main@_43_0 (= main@%_46_0 (= main@%_44_0 main@%_45_0)))
                (=> main@_43_0 (not main@%_46_0))
                (=> main@_23_0 (and main@_23_0 main@_17_0))
                (=> (and main@_23_0 main@_17_0) main@%or.cond14.i_0)
                (=> main@_23_0 (= main@%_24_0 (= main@%_22_0 0)))
                (=> main@_25_0 (and main@_25_0 main@_23_0))
                (=> (and main@_25_0 main@_23_0) main@%_24_0)
                (=> main@_25_0 a!7)
                (=> main@_25_0 (or (<= main@%_2_0 0) (> main@%_26_0 0)))
                (=> main@_25_0 (= main@%_27_0 (select main@%sm_0 main@%_26_0)))
                (=> main@_25_0 (= main@%_28_0 (= main@%_27_0 0)))
                (=> main@_25_0 (not main@%_28_0))
                (=> |tuple(main@_41_0, main@verifier.error_0)| main@_41_0)
                (=> |tuple(main@_38_0, main@verifier.error_0)| main@_38_0)
                (=> |tuple(main@_31_0, main@verifier.error_0)| main@_31_0)
                (=> |tuple(main@_29_0, main@verifier.error_0)| main@_29_0)
                (=> |tuple(main@_23_0, main@verifier.error_0)| main@_23_0)
                (=> |tuple(main@entry_0, main@verifier.error_0)| main@entry_0)
                (=> main@verifier.error_0
                    (or |tuple(main@_41_0, main@verifier.error_0)|
                        |tuple(main@_38_0, main@verifier.error_0)|
                        |tuple(main@_31_0, main@verifier.error_0)|
                        |tuple(main@_29_0, main@verifier.error_0)|
                        |tuple(main@_23_0, main@verifier.error_0)|
                        |tuple(main@entry_0, main@verifier.error_0)|
                        (and main@verifier.error_0 main@_43_0)
                        (and main@verifier.error_0 main@_25_0)))
                (=> |tuple(main@_41_0, main@verifier.error_0)|
                    (not main@%_42_0))
                (=> |tuple(main@_38_0, main@verifier.error_0)|
                    (not main@%_40_0))
                (=> |tuple(main@_31_0, main@verifier.error_0)|
                    (not main@%_34_0))
                (=> |tuple(main@_29_0, main@verifier.error_0)|
                    (not main@%_30_0))
                (=> |tuple(main@_23_0, main@verifier.error_0)|
                    (not main@%_24_0))
                (=> |tuple(main@entry_0, main@verifier.error_0)|
                    (not main@%_16_0))
                (=> main@verifier.error.split_0
                    (and main@verifier.error.split_0 main@verifier.error_0))
                main@verifier.error.split_0)))
  (=> a!8 main@verifier.error.split))))
(query main@verifier.error.split)

